language Essence 1.3

letting class be
        function(1 --> 4, 2 --> 4, 3 --> 4, 4 --> 1, 5 --> 4, 6 --> 2, 7 --> 6, 8 --> 1, 9 --> 1, 10 --> 3, 11 --> 5,
                 12 --> 6, 13 --> 1, 14 --> 4, 15 --> 6, 16 --> 4, 17 --> 4, 18 --> 3, 19 --> 5, 20 --> 6, 21 --> 6,
                 22 --> 3, 23 --> 1, 24 --> 4, 25 --> 5)
letting deck_length be 25
letting deck_width be 47
letting length be
        function(1 --> 22, 2 --> 14, 3 --> 19, 4 --> 4, 5 --> 7, 6 --> 5, 7 --> 5, 8 --> 22, 9 --> 1, 10 --> 1,
                 11 --> 24, 12 --> 1, 13 --> 3, 14 --> 1, 15 --> 20, 16 --> 1, 17 --> 1, 18 --> 24, 19 --> 15,
                 20 --> 15, 21 --> 15, 22 --> 15, 23 --> 9, 24 --> 8, 25 --> 9)
letting n_classes be 6
letting n_containers be 25
letting separation be function({3, 4} --> 18)
letting width be
        function(1 --> 1, 2 --> 1, 3 --> 2, 4 --> 1, 5 --> 1, 6 --> 1, 7 --> 1, 8 --> 1, 9 --> 1, 10 --> 1, 11 --> 25,
                 12 --> 2, 13 --> 1, 14 --> 1, 15 --> 1, 16 --> 1, 17 --> 1, 18 --> 1, 19 --> 1, 20 --> 1, 21 --> 1,
                 22 --> 1, 23 --> 1, 24 --> 1, 25 --> 1)
